NAME           C:\Bruker\Hvattum\knapsack\Problems\class4\100-10-14.mps
ROWS
 N  OBJ
 L  CONSTR1
 L  CONSTR2
 L  CONSTR3
 L  CONSTR4
 L  CONSTR5
 L  CONSTR6
 L  CONSTR7
 L  CONSTR8
 L  CONSTR9
 L  CONSTR10
COLUMNS
    INT0001   'MARKER'  'INTORG'
    X1        OBJ       845
    X1        CONSTR1   473
    X1        CONSTR2   386
    X1        CONSTR3   386
    X1        CONSTR4   674
    X1        CONSTR5   654
    X1        CONSTR6   508
    X1        CONSTR7   252
    X1        CONSTR8   75
    X1        CONSTR9   903
    X1        CONSTR10  625
    X2        OBJ       791
    X2        CONSTR1   329
    X2        CONSTR2   459
    X2        CONSTR3   260
    X2        CONSTR4   915
    X2        CONSTR5   567
    X2        CONSTR6   215
    X2        CONSTR7   898
    X2        CONSTR8   253
    X2        CONSTR9   24
    X2        CONSTR10  414
    X3        OBJ       1028
    X3        CONSTR1   827
    X3        CONSTR2   939
    X3        CONSTR3   432
    X3        CONSTR4   64
    X3        CONSTR5   899
    X3        CONSTR6   648
    X3        CONSTR7   130
    X3        CONSTR8   496
    X3        CONSTR9   950
    X3        CONSTR10  527
    X4        OBJ       822
    X4        CONSTR1   739
    X4        CONSTR2   350
    X4        CONSTR3   20
    X4        CONSTR4   380
    X4        CONSTR5   772
    X4        CONSTR6   95
    X4        CONSTR7   414
    X4        CONSTR8   311
    X4        CONSTR9   431
    X4        CONSTR10  776
    X5        OBJ       592
    X5        CONSTR1   848
    X5        CONSTR2   219
    X5        CONSTR3   793
    X5        CONSTR4   170
    X5        CONSTR5   372
    X5        CONSTR6   747
    X5        CONSTR7   587
    X5        CONSTR8   320
    X5        CONSTR9   768
    X5        CONSTR10  158
    X6        OBJ       552
    X6        CONSTR1   742
    X6        CONSTR2   700
    X6        CONSTR3   172
    X6        CONSTR4   436
    X6        CONSTR5   809
    X6        CONSTR6   78
    X6        CONSTR7   352
    X6        CONSTR8   500
    X6        CONSTR9   876
    X6        CONSTR10  141
    X7        OBJ       757
    X7        CONSTR1   101
    X7        CONSTR2   520
    X7        CONSTR3   68
    X7        CONSTR4   156
    X7        CONSTR5   473
    X7        CONSTR6   952
    X7        CONSTR7   426
    X7        CONSTR8   469
    X7        CONSTR9   917
    X7        CONSTR10  489
    X8        OBJ       778
    X8        CONSTR1   994
    X8        CONSTR2   466
    X8        CONSTR3   479
    X8        CONSTR4   630
    X8        CONSTR5   103
    X8        CONSTR6   898
    X8        CONSTR7   906
    X8        CONSTR8   762
    X8        CONSTR9   411
    X8        CONSTR10  322
    X9        OBJ       771
    X9        CONSTR1   385
    X9        CONSTR2   184
    X9        CONSTR3   34
    X9        CONSTR4   273
    X9        CONSTR5   123
    X9        CONSTR6   191
    X9        CONSTR7   127
    X9        CONSTR8   946
    X9        CONSTR9   405
    X9        CONSTR10  814
    X10       OBJ       714
    X10       CONSTR1   650
    X10       CONSTR2   291
    X10       CONSTR3   494
    X10       CONSTR4   398
    X10       CONSTR5   949
    X10       CONSTR6   573
    X10       CONSTR7   177
    X10       CONSTR8   458
    X10       CONSTR9   825
    X10       CONSTR10  881
    X11       OBJ       843
    X11       CONSTR1   381
    X11       CONSTR2   806
    X11       CONSTR3   160
    X11       CONSTR4   687
    X11       CONSTR5   775
    X11       CONSTR6   94
    X11       CONSTR7   202
    X11       CONSTR8   699
    X11       CONSTR9   536
    X11       CONSTR10  777
    X12       OBJ       909
    X12       CONSTR1   968
    X12       CONSTR2   242
    X12       CONSTR3   823
    X12       CONSTR4   517
    X12       CONSTR5   658
    X12       CONSTR6   752
    X12       CONSTR7   936
    X12       CONSTR8   511
    X12       CONSTR9   922
    X12       CONSTR10  833
    X13       OBJ       1080
    X13       CONSTR1   982
    X13       CONSTR2   155
    X13       CONSTR3   236
    X13       CONSTR4   547
    X13       CONSTR5   142
    X13       CONSTR6   862
    X13       CONSTR7   613
    X13       CONSTR8   537
    X13       CONSTR9   852
    X13       CONSTR10  952
    X14       OBJ       694
    X14       CONSTR1   632
    X14       CONSTR2   437
    X14       CONSTR3   775
    X14       CONSTR4   159
    X14       CONSTR5   644
    X14       CONSTR6   463
    X14       CONSTR7   471
    X14       CONSTR8   925
    X14       CONSTR9   639
    X14       CONSTR10  492
    X15       OBJ       718
    X15       CONSTR1   521
    X15       CONSTR2   847
    X15       CONSTR3   410
    X15       CONSTR4   622
    X15       CONSTR5   614
    X15       CONSTR6   302
    X15       CONSTR7   19
    X15       CONSTR8   435
    X15       CONSTR9   269
    X15       CONSTR10  887
    X16       OBJ       581
    X16       CONSTR1   268
    X16       CONSTR2   910
    X16       CONSTR3   392
    X16       CONSTR4   623
    X16       CONSTR5   98
    X16       CONSTR6   896
    X16       CONSTR7   92
    X16       CONSTR8   426
    X16       CONSTR9   728
    X16       CONSTR10  700
    X17       OBJ       589
    X17       CONSTR1   904
    X17       CONSTR2   821
    X17       CONSTR3   412
    X17       CONSTR4   929
    X17       CONSTR5   515
    X17       CONSTR6   66
    X17       CONSTR7   490
    X17       CONSTR8   586
    X17       CONSTR9   84
    X17       CONSTR10  147
    X18       OBJ       1116
    X18       CONSTR1   441
    X18       CONSTR2   828
    X18       CONSTR3   603
    X18       CONSTR4   996
    X18       CONSTR5   550
    X18       CONSTR6   933
    X18       CONSTR7   968
    X18       CONSTR8   987
    X18       CONSTR9   220
    X18       CONSTR10  223
    X19       OBJ       692
    X19       CONSTR1   487
    X19       CONSTR2   715
    X19       CONSTR3   549
    X19       CONSTR4   441
    X19       CONSTR5   647
    X19       CONSTR6   132
    X19       CONSTR7   234
    X19       CONSTR8   103
    X19       CONSTR9   359
    X19       CONSTR10  586
    X20       OBJ       957
    X20       CONSTR1   740
    X20       CONSTR2   225
    X20       CONSTR3   848
    X20       CONSTR4   399
    X20       CONSTR5   410
    X20       CONSTR6   915
    X20       CONSTR7   659
    X20       CONSTR8   471
    X20       CONSTR9   58
    X20       CONSTR10  988
    X21       OBJ       500
    X21       CONSTR1   964
    X21       CONSTR2   566
    X21       CONSTR3   416
    X21       CONSTR4   302
    X21       CONSTR5   904
    X21       CONSTR6   119
    X21       CONSTR7   696
    X21       CONSTR8   194
    X21       CONSTR9   232
    X21       CONSTR10  134
    X22       OBJ       981
    X22       CONSTR1   917
    X22       CONSTR2   499
    X22       CONSTR3   999
    X22       CONSTR4   950
    X22       CONSTR5   723
    X22       CONSTR6   570
    X22       CONSTR7   429
    X22       CONSTR8   89
    X22       CONSTR9   448
    X22       CONSTR10  164
    X23       OBJ       998
    X23       CONSTR1   480
    X23       CONSTR2   341
    X23       CONSTR3   751
    X23       CONSTR4   687
    X23       CONSTR5   711
    X23       CONSTR6   550
    X23       CONSTR7   793
    X23       CONSTR8   842
    X23       CONSTR9   743
    X23       CONSTR10  106
    X24       OBJ       766
    X24       CONSTR1   791
    X24       CONSTR2   982
    X24       CONSTR3   855
    X24       CONSTR4   143
    X24       CONSTR5   412
    X24       CONSTR6   573
    X24       CONSTR7   69
    X24       CONSTR8   813
    X24       CONSTR9   213
    X24       CONSTR10  282
    X25       OBJ       787
    X25       CONSTR1   544
    X25       CONSTR2   539
    X25       CONSTR3   592
    X25       CONSTR4   568
    X25       CONSTR5   969
    X25       CONSTR6   933
    X25       CONSTR7   275
    X25       CONSTR8   850
    X25       CONSTR9   989
    X25       CONSTR10  923
    X26       OBJ       748
    X26       CONSTR1   845
    X26       CONSTR2   883
    X26       CONSTR3   423
    X26       CONSTR4   424
    X26       CONSTR5   594
    X26       CONSTR6   173
    X26       CONSTR7   875
    X26       CONSTR8   212
    X26       CONSTR9   928
    X26       CONSTR10  608
    X27       OBJ       809
    X27       CONSTR1   276
    X27       CONSTR2   761
    X27       CONSTR3   61
    X27       CONSTR4   770
    X27       CONSTR5   726
    X27       CONSTR6   962
    X27       CONSTR7   424
    X27       CONSTR8   201
    X27       CONSTR9   368
    X27       CONSTR10  258
    X28       OBJ       940
    X28       CONSTR1   32
    X28       CONSTR2   411
    X28       CONSTR3   46
    X28       CONSTR4   294
    X28       CONSTR5   711
    X28       CONSTR6   578
    X28       CONSTR7   143
    X28       CONSTR8   915
    X28       CONSTR9   466
    X28       CONSTR10  843
    X29       OBJ       756
    X29       CONSTR1   537
    X29       CONSTR2   210
    X29       CONSTR3   570
    X29       CONSTR4   39
    X29       CONSTR5   354
    X29       CONSTR6   78
    X29       CONSTR7   482
    X29       CONSTR8   437
    X29       CONSTR9   813
    X29       CONSTR10  734
    X30       OBJ       942
    X30       CONSTR1   818
    X30       CONSTR2   48
    X30       CONSTR3   790
    X30       CONSTR4   690
    X30       CONSTR5   827
    X30       CONSTR6   906
    X30       CONSTR7   788
    X30       CONSTR8   248
    X30       CONSTR9   636
    X30       CONSTR10  878
    X31       OBJ       826
    X31       CONSTR1   869
    X31       CONSTR2   441
    X31       CONSTR3   975
    X31       CONSTR4   370
    X31       CONSTR5   115
    X31       CONSTR6   455
    X31       CONSTR7   648
    X31       CONSTR8   262
    X31       CONSTR9   387
    X31       CONSTR10  961
    X32       OBJ       841
    X32       CONSTR1   451
    X32       CONSTR2   504
    X32       CONSTR3   481
    X32       CONSTR4   441
    X32       CONSTR5   495
    X32       CONSTR6   280
    X32       CONSTR7   207
    X32       CONSTR8   878
    X32       CONSTR9   923
    X32       CONSTR10  34
    X33       OBJ       760
    X33       CONSTR1   201
    X33       CONSTR2   726
    X33       CONSTR3   18
    X33       CONSTR4   391
    X33       CONSTR5   276
    X33       CONSTR6   375
    X33       CONSTR7   174
    X33       CONSTR8   930
    X33       CONSTR9   553
    X33       CONSTR10  161
    X34       OBJ       866
    X34       CONSTR1   923
    X34       CONSTR2   667
    X34       CONSTR3   824
    X34       CONSTR4   935
    X34       CONSTR5   294
    X34       CONSTR6   152
    X34       CONSTR7   259
    X34       CONSTR8   201
    X34       CONSTR9   25
    X34       CONSTR10  221
    X35       OBJ       830
    X35       CONSTR1   300
    X35       CONSTR2   636
    X35       CONSTR3   354
    X35       CONSTR4   866
    X35       CONSTR5   553
    X35       CONSTR6   581
    X35       CONSTR7   189
    X35       CONSTR8   545
    X35       CONSTR9   208
    X35       CONSTR10  245
    X36       OBJ       721
    X36       CONSTR1   420
    X36       CONSTR2   870
    X36       CONSTR3   28
    X36       CONSTR4   523
    X36       CONSTR5   815
    X36       CONSTR6   480
    X36       CONSTR7   551
    X36       CONSTR8   78
    X36       CONSTR9   10
    X36       CONSTR10  632
    X37       OBJ       875
    X37       CONSTR1   155
    X37       CONSTR2   818
    X37       CONSTR3   475
    X37       CONSTR4   461
    X37       CONSTR5   922
    X37       CONSTR6   119
    X37       CONSTR7   60
    X37       CONSTR8   778
    X37       CONSTR9   16
    X37       CONSTR10  837
    X38       OBJ       675
    X38       CONSTR1   912
    X38       CONSTR2   982
    X38       CONSTR3   905
    X38       CONSTR4   935
    X38       CONSTR5   448
    X38       CONSTR6   40
    X38       CONSTR7   457
    X38       CONSTR8   237
    X38       CONSTR9   749
    X38       CONSTR10  596
    X39       OBJ       588
    X39       CONSTR1   412
    X39       CONSTR2   46
    X39       CONSTR3   249
    X39       CONSTR4   596
    X39       CONSTR5   447
    X39       CONSTR6   811
    X39       CONSTR7   97
    X39       CONSTR8   629
    X39       CONSTR9   175
    X39       CONSTR10  710
    X40       OBJ       956
    X40       CONSTR1   564
    X40       CONSTR2   791
    X40       CONSTR3   878
    X40       CONSTR4   468
    X40       CONSTR5   335
    X40       CONSTR6   340
    X40       CONSTR7   869
    X40       CONSTR8   564
    X40       CONSTR9   717
    X40       CONSTR10  134
    X41       OBJ       691
    X41       CONSTR1   503
    X41       CONSTR2   648
    X41       CONSTR3   985
    X41       CONSTR4   747
    X41       CONSTR5   881
    X41       CONSTR6   593
    X41       CONSTR7   154
    X41       CONSTR8   489
    X41       CONSTR9   323
    X41       CONSTR10  560
    X42       OBJ       655
    X42       CONSTR1   698
    X42       CONSTR2   617
    X42       CONSTR3   508
    X42       CONSTR4   452
    X42       CONSTR5   760
    X42       CONSTR6   418
    X42       CONSTR7   442
    X42       CONSTR8   734
    X42       CONSTR9   895
    X42       CONSTR10  483
    X43       OBJ       659
    X43       CONSTR1   79
    X43       CONSTR2   406
    X43       CONSTR3   426
    X43       CONSTR4   38
    X43       CONSTR5   594
    X43       CONSTR6   829
    X43       CONSTR7   280
    X43       CONSTR8   83
    X43       CONSTR9   481
    X43       CONSTR10  235
    X44       OBJ       786
    X44       CONSTR1   179
    X44       CONSTR2   753
    X44       CONSTR3   552
    X44       CONSTR4   811
    X44       CONSTR5   997
    X44       CONSTR6   831
    X44       CONSTR7   161
    X44       CONSTR8   932
    X44       CONSTR9   739
    X44       CONSTR10  279
    X45       OBJ       955
    X45       CONSTR1   19
    X45       CONSTR2   815
    X45       CONSTR3   386
    X45       CONSTR4   988
    X45       CONSTR5   458
    X45       CONSTR6   41
    X45       CONSTR7   548
    X45       CONSTR8   677
    X45       CONSTR9   508
    X45       CONSTR10  289
    X46       OBJ       683
    X46       CONSTR1   583
    X46       CONSTR2   15
    X46       CONSTR3   107
    X46       CONSTR4   372
    X46       CONSTR5   806
    X46       CONSTR6   423
    X46       CONSTR7   710
    X46       CONSTR8   361
    X46       CONSTR9   450
    X46       CONSTR10  146
    X47       OBJ       861
    X47       CONSTR1   899
    X47       CONSTR2   450
    X47       CONSTR3   794
    X47       CONSTR4   425
    X47       CONSTR5   867
    X47       CONSTR6   713
    X47       CONSTR7   432
    X47       CONSTR8   952
    X47       CONSTR9   402
    X47       CONSTR10  520
    X48       OBJ       827
    X48       CONSTR1   780
    X48       CONSTR2   202
    X48       CONSTR3   996
    X48       CONSTR4   99
    X48       CONSTR5   941
    X48       CONSTR6   88
    X48       CONSTR7   555
    X48       CONSTR8   977
    X48       CONSTR9   622
    X48       CONSTR10  446
    X49       OBJ       1122
    X49       CONSTR1   680
    X49       CONSTR2   606
    X49       CONSTR3   959
    X49       CONSTR4   654
    X49       CONSTR5   326
    X49       CONSTR6   696
    X49       CONSTR7   660
    X49       CONSTR8   607
    X49       CONSTR9   825
    X49       CONSTR10  357
    X50       OBJ       840
    X50       CONSTR1   702
    X50       CONSTR2   295
    X50       CONSTR3   378
    X50       CONSTR4   739
    X50       CONSTR5   142
    X50       CONSTR6   615
    X50       CONSTR7   897
    X50       CONSTR8   279
    X50       CONSTR9   942
    X50       CONSTR10  870
    X51       OBJ       825
    X51       CONSTR1   573
    X51       CONSTR2   35
    X51       CONSTR3   296
    X51       CONSTR4   757
    X51       CONSTR5   745
    X51       CONSTR6   494
    X51       CONSTR7   108
    X51       CONSTR8   319
    X51       CONSTR9   435
    X51       CONSTR10  994
    X52       OBJ       772
    X52       CONSTR1   451
    X52       CONSTR2   651
    X52       CONSTR3   582
    X52       CONSTR4   687
    X52       CONSTR5   529
    X52       CONSTR6   308
    X52       CONSTR7   551
    X52       CONSTR8   789
    X52       CONSTR9   678
    X52       CONSTR10  979
    X53       OBJ       671
    X53       CONSTR1   320
    X53       CONSTR2   467
    X53       CONSTR3   254
    X53       CONSTR4   282
    X53       CONSTR5   46
    X53       CONSTR6   719
    X53       CONSTR7   514
    X53       CONSTR8   412
    X53       CONSTR9   285
    X53       CONSTR10  167
    X54       OBJ       836
    X54       CONSTR1   63
    X54       CONSTR2   531
    X54       CONSTR3   274
    X54       CONSTR4   950
    X54       CONSTR5   783
    X54       CONSTR6   120
    X54       CONSTR7   930
    X54       CONSTR8   470
    X54       CONSTR9   180
    X54       CONSTR10  758
    X55       OBJ       672
    X55       CONSTR1   194
    X55       CONSTR2   160
    X55       CONSTR3   154
    X55       CONSTR4   455
    X55       CONSTR5   725
    X55       CONSTR6   963
    X55       CONSTR7   516
    X55       CONSTR8   551
    X55       CONSTR9   520
    X55       CONSTR10  56
    X56       OBJ       859
    X56       CONSTR1   511
    X56       CONSTR2   204
    X56       CONSTR3   299
    X56       CONSTR4   261
    X56       CONSTR5   191
    X56       CONSTR6   294
    X56       CONSTR7   819
    X56       CONSTR8   253
    X56       CONSTR9   106
    X56       CONSTR10  660
    X57       OBJ       932
    X57       CONSTR1   640
    X57       CONSTR2   170
    X57       CONSTR3   637
    X57       CONSTR4   709
    X57       CONSTR5   527
    X57       CONSTR6   189
    X57       CONSTR7   937
    X57       CONSTR8   114
    X57       CONSTR9   345
    X57       CONSTR10  89
    X58       OBJ       927
    X58       CONSTR1   672
    X58       CONSTR2   331
    X58       CONSTR3   446
    X58       CONSTR4   487
    X58       CONSTR5   735
    X58       CONSTR6   299
    X58       CONSTR7   348
    X58       CONSTR8   511
    X58       CONSTR9   973
    X58       CONSTR10  161
    X59       OBJ       582
    X59       CONSTR1   463
    X59       CONSTR2   595
    X59       CONSTR3   419
    X59       CONSTR4   925
    X59       CONSTR5   799
    X59       CONSTR6   168
    X59       CONSTR7   127
    X59       CONSTR8   619
    X59       CONSTR9   398
    X59       CONSTR10  402
    X60       OBJ       852
    X60       CONSTR1   624
    X60       CONSTR2   683
    X60       CONSTR3   651
    X60       CONSTR4   643
    X60       CONSTR5   93
    X60       CONSTR6   728
    X60       CONSTR7   458
    X60       CONSTR8   806
    X60       CONSTR9   581
    X60       CONSTR10  597
    X61       OBJ       870
    X61       CONSTR1   618
    X61       CONSTR2   343
    X61       CONSTR3   711
    X61       CONSTR4   676
    X61       CONSTR5   968
    X61       CONSTR6   209
    X61       CONSTR7   302
    X61       CONSTR8   619
    X61       CONSTR9   445
    X61       CONSTR10  685
    X62       OBJ       840
    X62       CONSTR1   534
    X62       CONSTR2   480
    X62       CONSTR3   399
    X62       CONSTR4   996
    X62       CONSTR5   450
    X62       CONSTR6   974
    X62       CONSTR7   894
    X62       CONSTR8   54
    X62       CONSTR9   961
    X62       CONSTR10  742
    X63       OBJ       879
    X63       CONSTR1   798
    X63       CONSTR2   477
    X63       CONSTR3   79
    X63       CONSTR4   855
    X63       CONSTR5   563
    X63       CONSTR6   912
    X63       CONSTR7   228
    X63       CONSTR8   180
    X63       CONSTR9   722
    X63       CONSTR10  990
    X64       OBJ       808
    X64       CONSTR1   255
    X64       CONSTR2   660
    X64       CONSTR3   81
    X64       CONSTR4   269
    X64       CONSTR5   813
    X64       CONSTR6   942
    X64       CONSTR7   992
    X64       CONSTR8   699
    X64       CONSTR9   481
    X64       CONSTR10  968
    X65       OBJ       763
    X65       CONSTR1   39
    X65       CONSTR2   74
    X65       CONSTR3   446
    X65       CONSTR4   186
    X65       CONSTR5   260
    X65       CONSTR6   71
    X65       CONSTR7   582
    X65       CONSTR8   116
    X65       CONSTR9   448
    X65       CONSTR10  498
    X66       OBJ       714
    X66       CONSTR1   522
    X66       CONSTR2   359
    X66       CONSTR3   176
    X66       CONSTR4   846
    X66       CONSTR5   766
    X66       CONSTR6   225
    X66       CONSTR7   602
    X66       CONSTR8   636
    X66       CONSTR9   632
    X66       CONSTR10  840
    X67       OBJ       722
    X67       CONSTR1   733
    X67       CONSTR2   514
    X67       CONSTR3   939
    X67       CONSTR4   870
    X67       CONSTR5   459
    X67       CONSTR6   929
    X67       CONSTR7   739
    X67       CONSTR8   247
    X67       CONSTR9   138
    X67       CONSTR10  102
    X68       OBJ       872
    X68       CONSTR1   144
    X68       CONSTR2   432
    X68       CONSTR3   893
    X68       CONSTR4   505
    X68       CONSTR5   176
    X68       CONSTR6   783
    X68       CONSTR7   460
    X68       CONSTR8   769
    X68       CONSTR9   599
    X68       CONSTR10  835
    X69       OBJ       780
    X69       CONSTR1   662
    X69       CONSTR2   108
    X69       CONSTR3   556
    X69       CONSTR4   809
    X69       CONSTR5   21
    X69       CONSTR6   978
    X69       CONSTR7   631
    X69       CONSTR8   666
    X69       CONSTR9   848
    X69       CONSTR10  703
    X70       OBJ       797
    X70       CONSTR1   143
    X70       CONSTR2   563
    X70       CONSTR3   121
    X70       CONSTR4   690
    X70       CONSTR5   335
    X70       CONSTR6   609
    X70       CONSTR7   256
    X70       CONSTR8   820
    X70       CONSTR9   851
    X70       CONSTR10  200
    X71       OBJ       858
    X71       CONSTR1   205
    X71       CONSTR2   820
    X71       CONSTR3   135
    X71       CONSTR4   281
    X71       CONSTR5   188
    X71       CONSTR6   673
    X71       CONSTR7   894
    X71       CONSTR8   765
    X71       CONSTR9   741
    X71       CONSTR10  395
    X72       OBJ       771
    X72       CONSTR1   64
    X72       CONSTR2   237
    X72       CONSTR3   821
    X72       CONSTR4   993
    X72       CONSTR5   276
    X72       CONSTR6   835
    X72       CONSTR7   516
    X72       CONSTR8   376
    X72       CONSTR9   138
    X72       CONSTR10  620
    X73       OBJ       828
    X73       CONSTR1   319
    X73       CONSTR2   93
    X73       CONSTR3   33
    X73       CONSTR4   289
    X73       CONSTR5   775
    X73       CONSTR6   821
    X73       CONSTR7   138
    X73       CONSTR8   665
    X73       CONSTR9   715
    X73       CONSTR10  937
    X74       OBJ       608
    X74       CONSTR1   765
    X74       CONSTR2   73
    X74       CONSTR3   36
    X74       CONSTR4   458
    X74       CONSTR5   12
    X74       CONSTR6   62
    X74       CONSTR7   304
    X74       CONSTR8   15
    X74       CONSTR9   520
    X74       CONSTR10  385
    X75       OBJ       859
    X75       CONSTR1   64
    X75       CONSTR2   824
    X75       CONSTR3   921
    X75       CONSTR4   580
    X75       CONSTR5   80
    X75       CONSTR6   464
    X75       CONSTR7   558
    X75       CONSTR8   782
    X75       CONSTR9   714
    X75       CONSTR10  743
    X76       OBJ       571
    X76       CONSTR1   94
    X76       CONSTR2   912
    X76       CONSTR3   352
    X76       CONSTR4   310
    X76       CONSTR5   221
    X76       CONSTR6   987
    X76       CONSTR7   644
    X76       CONSTR8   866
    X76       CONSTR9   78
    X76       CONSTR10  124
    X77       OBJ       720
    X77       CONSTR1   351
    X77       CONSTR2   260
    X77       CONSTR3   851
    X77       CONSTR4   92
    X77       CONSTR5   591
    X77       CONSTR6   122
    X77       CONSTR7   427
    X77       CONSTR8   923
    X77       CONSTR9   466
    X77       CONSTR10  356
    X78       OBJ       668
    X78       CONSTR1   672
    X78       CONSTR2   338
    X78       CONSTR3   224
    X78       CONSTR4   601
    X78       CONSTR5   694
    X78       CONSTR6   405
    X78       CONSTR7   786
    X78       CONSTR8   271
    X78       CONSTR9   176
    X78       CONSTR10  137
    X79       OBJ       601
    X79       CONSTR1   744
    X79       CONSTR2   419
    X79       CONSTR3   329
    X79       CONSTR4   783
    X79       CONSTR5   406
    X79       CONSTR6   238
    X79       CONSTR7   936
    X79       CONSTR8   37
    X79       CONSTR9   401
    X79       CONSTR10  598
    X80       OBJ       905
    X80       CONSTR1   443
    X80       CONSTR2   269
    X80       CONSTR3   702
    X80       CONSTR4   308
    X80       CONSTR5   957
    X80       CONSTR6   874
    X80       CONSTR7   100
    X80       CONSTR8   145
    X80       CONSTR9   68
    X80       CONSTR10  406
    X81       OBJ       930
    X81       CONSTR1   577
    X81       CONSTR2   219
    X81       CONSTR3   810
    X81       CONSTR4   453
    X81       CONSTR5   327
    X81       CONSTR6   846
    X81       CONSTR7   449
    X81       CONSTR8   867
    X81       CONSTR9   840
    X81       CONSTR10  243
    X82       OBJ       602
    X82       CONSTR1   917
    X82       CONSTR2   739
    X82       CONSTR3   417
    X82       CONSTR4   496
    X82       CONSTR5   692
    X82       CONSTR6   325
    X82       CONSTR7   893
    X82       CONSTR8   926
    X82       CONSTR9   128
    X82       CONSTR10  308
    X83       OBJ       706
    X83       CONSTR1   847
    X83       CONSTR2   539
    X83       CONSTR3   942
    X83       CONSTR4   279
    X83       CONSTR5   323
    X83       CONSTR6   331
    X83       CONSTR7   516
    X83       CONSTR8   57
    X83       CONSTR9   98
    X83       CONSTR10  506
    X84       OBJ       981
    X84       CONSTR1   657
    X84       CONSTR2   707
    X84       CONSTR3   680
    X84       CONSTR4   410
    X84       CONSTR5   363
    X84       CONSTR6   287
    X84       CONSTR7   708
    X84       CONSTR8   978
    X84       CONSTR9   498
    X84       CONSTR10  679
    X85       OBJ       872
    X85       CONSTR1   280
    X85       CONSTR2   960
    X85       CONSTR3   687
    X85       CONSTR4   388
    X85       CONSTR5   244
    X85       CONSTR6   867
    X85       CONSTR7   3
    X85       CONSTR8   95
    X85       CONSTR9   150
    X85       CONSTR10  456
    X86       OBJ       810
    X86       CONSTR1   433
    X86       CONSTR2   588
    X86       CONSTR3   444
    X86       CONSTR4   51
    X86       CONSTR5   424
    X86       CONSTR6   842
    X86       CONSTR7   585
    X86       CONSTR8   189
    X86       CONSTR9   258
    X86       CONSTR10  752
    X87       OBJ       1067
    X87       CONSTR1   730
    X87       CONSTR2   141
    X87       CONSTR3   523
    X87       CONSTR4   527
    X87       CONSTR5   671
    X87       CONSTR6   336
    X87       CONSTR7   489
    X87       CONSTR8   913
    X87       CONSTR9   441
    X87       CONSTR10  921
    X88       OBJ       771
    X88       CONSTR1   861
    X88       CONSTR2   976
    X88       CONSTR3   307
    X88       CONSTR4   998
    X88       CONSTR5   460
    X88       CONSTR6   944
    X88       CONSTR7   393
    X88       CONSTR8   660
    X88       CONSTR9   52
    X88       CONSTR10  955
    X89       OBJ       758
    X89       CONSTR1   31
    X89       CONSTR2   180
    X89       CONSTR3   159
    X89       CONSTR4   11
    X89       CONSTR5   905
    X89       CONSTR6   347
    X89       CONSTR7   601
    X89       CONSTR8   823
    X89       CONSTR9   100
    X89       CONSTR10  954
    X90       OBJ       945
    X90       CONSTR1   490
    X90       CONSTR2   146
    X90       CONSTR3   923
    X90       CONSTR4   275
    X90       CONSTR5   662
    X90       CONSTR6   971
    X90       CONSTR7   6
    X90       CONSTR8   371
    X90       CONSTR9   144
    X90       CONSTR10  657
    X91       OBJ       804
    X91       CONSTR1   765
    X91       CONSTR2   994
    X91       CONSTR3   593
    X91       CONSTR4   308
    X91       CONSTR5   175
    X91       CONSTR6   656
    X91       CONSTR7   2
    X91       CONSTR8   293
    X91       CONSTR9   311
    X91       CONSTR10  455
    X92       OBJ       698
    X92       CONSTR1   732
    X92       CONSTR2   583
    X92       CONSTR3   796
    X92       CONSTR4   555
    X92       CONSTR5   157
    X92       CONSTR6   358
    X92       CONSTR7   828
    X92       CONSTR8   31
    X92       CONSTR9   77
    X92       CONSTR10  660
    X93       OBJ       862
    X93       CONSTR1   357
    X93       CONSTR2   417
    X93       CONSTR3   843
    X93       CONSTR4   53
    X93       CONSTR5   907
    X93       CONSTR6   293
    X93       CONSTR7   694
    X93       CONSTR8   761
    X93       CONSTR9   415
    X93       CONSTR10  233
    X94       OBJ       666
    X94       CONSTR1   218
    X94       CONSTR2   764
    X94       CONSTR3   5
    X94       CONSTR4   145
    X94       CONSTR5   602
    X94       CONSTR6   52
    X94       CONSTR7   369
    X94       CONSTR8   83
    X94       CONSTR9   134
    X94       CONSTR10  962
    X95       OBJ       728
    X95       CONSTR1   661
    X95       CONSTR2   529
    X95       CONSTR3   11
    X95       CONSTR4   211
    X95       CONSTR5   398
    X95       CONSTR6   517
    X95       CONSTR7   246
    X95       CONSTR8   941
    X95       CONSTR9   271
    X95       CONSTR10  267
    X96       OBJ       862
    X96       CONSTR1   687
    X96       CONSTR2   364
    X96       CONSTR3   250
    X96       CONSTR4   9
    X96       CONSTR5   899
    X96       CONSTR6   763
    X96       CONSTR7   23
    X96       CONSTR8   452
    X96       CONSTR9   228
    X96       CONSTR10  89
    X97       OBJ       901
    X97       CONSTR1   626
    X97       CONSTR2   510
    X97       CONSTR3   181
    X97       CONSTR4   299
    X97       CONSTR5   28
    X97       CONSTR6   498
    X97       CONSTR7   854
    X97       CONSTR8   543
    X97       CONSTR9   261
    X97       CONSTR10  595
    X98       OBJ       639
    X98       CONSTR1   46
    X98       CONSTR2   680
    X98       CONSTR3   635
    X98       CONSTR4   399
    X98       CONSTR5   47
    X98       CONSTR6   298
    X98       CONSTR7   849
    X98       CONSTR8   413
    X98       CONSTR9   125
    X98       CONSTR10  392
    X99       OBJ       734
    X99       CONSTR1   607
    X99       CONSTR2   122
    X99       CONSTR3   651
    X99       CONSTR4   667
    X99       CONSTR5   179
    X99       CONSTR6   205
    X99       CONSTR7   547
    X99       CONSTR8   306
    X99       CONSTR9   757
    X99       CONSTR10  35
    X100      OBJ       826
    X100      CONSTR1   902
    X100      CONSTR2   971
    X100      CONSTR3   758
    X100      CONSTR4   248
    X100      CONSTR5   585
    X100      CONSTR6   180
    X100      CONSTR7   335
    X100      CONSTR8   928
    X100      CONSTR9   127
    X100      CONSTR10  567
    INT0001   'MARKER'  'INTEND'
RHS
    RHS10001  CONSTR1   26525
    RHS10001  CONSTR2   25120
    RHS10001  CONSTR3   24280
    RHS10001  CONSTR4   25265
    RHS10001  CONSTR5   26205
    RHS10001  CONSTR6   25477
    RHS10001  CONSTR7   23982
    RHS10001  CONSTR8   25695
    RHS10001  CONSTR9   23511
    RHS10001  CONSTR10  26096
BOUNDS
 BV BND       X1        .00
 BV BND       X2        .00
 BV BND       X3        .00
 BV BND       X4        .00
 BV BND       X5        .00
 BV BND       X6        .00
 BV BND       X7        .00
 BV BND       X8        .00
 BV BND       X9        .00
 BV BND       X10       .00
 BV BND       X11       .00
 BV BND       X12       .00
 BV BND       X13       .00
 BV BND       X14       .00
 BV BND       X15       .00
 BV BND       X16       .00
 BV BND       X17       .00
 BV BND       X18       .00
 BV BND       X19       .00
 BV BND       X20       .00
 BV BND       X21       .00
 BV BND       X22       .00
 BV BND       X23       .00
 BV BND       X24       .00
 BV BND       X25       .00
 BV BND       X26       .00
 BV BND       X27       .00
 BV BND       X28       .00
 BV BND       X29       .00
 BV BND       X30       .00
 BV BND       X31       .00
 BV BND       X32       .00
 BV BND       X33       .00
 BV BND       X34       .00
 BV BND       X35       .00
 BV BND       X36       .00
 BV BND       X37       .00
 BV BND       X38       .00
 BV BND       X39       .00
 BV BND       X40       .00
 BV BND       X41       .00
 BV BND       X42       .00
 BV BND       X43       .00
 BV BND       X44       .00
 BV BND       X45       .00
 BV BND       X46       .00
 BV BND       X47       .00
 BV BND       X48       .00
 BV BND       X49       .00
 BV BND       X50       .00
 BV BND       X51       .00
 BV BND       X52       .00
 BV BND       X53       .00
 BV BND       X54       .00
 BV BND       X55       .00
 BV BND       X56       .00
 BV BND       X57       .00
 BV BND       X58       .00
 BV BND       X59       .00
 BV BND       X60       .00
 BV BND       X61       .00
 BV BND       X62       .00
 BV BND       X63       .00
 BV BND       X64       .00
 BV BND       X65       .00
 BV BND       X66       .00
 BV BND       X67       .00
 BV BND       X68       .00
 BV BND       X69       .00
 BV BND       X70       .00
 BV BND       X71       .00
 BV BND       X72       .00
 BV BND       X73       .00
 BV BND       X74       .00
 BV BND       X75       .00
 BV BND       X76       .00
 BV BND       X77       .00
 BV BND       X78       .00
 BV BND       X79       .00
 BV BND       X80       .00
 BV BND       X81       .00
 BV BND       X82       .00
 BV BND       X83       .00
 BV BND       X84       .00
 BV BND       X85       .00
 BV BND       X86       .00
 BV BND       X87       .00
 BV BND       X88       .00
 BV BND       X89       .00
 BV BND       X90       .00
 BV BND       X91       .00
 BV BND       X92       .00
 BV BND       X93       .00
 BV BND       X94       .00
 BV BND       X95       .00
 BV BND       X96       .00
 BV BND       X97       .00
 BV BND       X98       .00
 BV BND       X99       .00
 BV BND       X100      .00
ENDATA
